PROBLEM NAME: eil51_n6
KNAPSACK DATA TYPE: uncorrelated
DIMENSION: 6
NUMBER OF ITEMS: 5
CAPACITY OF KNAPSACK: 2986
MIN SPEED: 0.1
MAX SPEED: 1
RENTING RATIO: 6.52
EDGE_WEIGHT_TYPE: CEIL_2D
NODE_COORD_SECTION	(INDEX, X, Y):
1	31	62
2	52	41
3	27	23
4	57	58
5	62	42
6	43	67
ITEMS SECTION	(INDEX, PROFIT, WEIGHT, ASSIGNED NODE NUMBER):
1	808	906	6
2	727	724	4
3	710	416	5
4	218	428	2
5	212	811	3
